certificates/rado_a11_c267_N28.cnf
c Rad2 upper bound instance: x1 + 11*x2 - x3 = 267, interval [1,28]
p cnf 28 142
1 9 25 0
-1 -9 -25 0
1 20 26 0
-1 -20 -26 0
2 10 25 0
-2 -10 -25 0
2 21 26 0
-2 -21 -26 0
3 11 25 0
-3 -11 -25 0
3 22 26 0
-3 -22 -26 0
1 4 24 0
-1 -4 -24 0
4 12 25 0
-4 -12 -25 0
4 23 26 0
-4 -23 -26 0
2 5 24 0
-2 -5 -24 0
5 13 25 0
-5 -13 -25 0
5 24 26 0
-5 -24 -26 0
3 6 24 0
-3 -6 -24 0
6 14 25 0
-6 -14 -25 0
6 25 26 0
-6 -25 -26 0
4 7 24 0
-4 -7 -24 0
7 15 25 0
-7 -15 -25 0
7 26 0
-7 -26 0
5 8 24 0
-5 -8 -24 0
8 16 25 0
-8 -16 -25 0
8 26 27 0
-8 -26 -27 0
6 9 24 0
-6 -9 -24 0
9 17 25 0
-9 -17 -25 0
9 26 28 0
-9 -26 -28 0
7 10 24 0
-7 -10 -24 0
10 18 25 0
-10 -18 -25 0
8 11 24 0
-8 -11 -24 0
11 19 25 0
-11 -19 -25 0
9 12 24 0
-9 -12 -24 0
12 20 25 0
-12 -20 -25 0
10 13 24 0
-10 -13 -24 0
13 21 25 0
-13 -21 -25 0
11 14 24 0
-11 -14 -24 0
14 22 25 0
-14 -22 -25 0
1 15 23 0
-1 -15 -23 0
12 15 24 0
-12 -15 -24 0
15 23 25 0
-15 -23 -25 0
2 16 23 0
-2 -16 -23 0
13 16 24 0
-13 -16 -24 0
16 24 25 0
-16 -24 -25 0
3 17 23 0
-3 -17 -23 0
14 17 24 0
-14 -17 -24 0
17 25 0
-17 -25 0
4 18 23 0
-4 -18 -23 0
15 18 24 0
-15 -18 -24 0
18 25 26 0
-18 -25 -26 0
5 19 23 0
-5 -19 -23 0
16 19 24 0
-16 -19 -24 0
19 25 27 0
-19 -25 -27 0
6 20 23 0
-6 -20 -23 0
17 20 24 0
-17 -20 -24 0
20 25 28 0
-20 -25 -28 0
7 21 23 0
-7 -21 -23 0
18 21 24 0
-18 -21 -24 0
8 22 23 0
-8 -22 -23 0
19 22 24 0
-19 -22 -24 0
9 23 0
-9 -23 0
20 23 24 0
-20 -23 -24 0
10 23 24 0
-10 -23 -24 0
21 24 0
-21 -24 0
11 23 25 0
-11 -23 -25 0
22 24 25 0
-22 -24 -25 0
1 22 26 0
-1 -22 -26 0
12 23 26 0
-12 -23 -26 0
23 24 26 0
-23 -24 -26 0
2 22 27 0
-2 -22 -27 0
13 23 27 0
-13 -23 -27 0
24 27 0
-24 -27 0
3 22 28 0
-3 -22 -28 0
14 23 28 0
-14 -23 -28 0
24 25 28 0
-24 -25 -28 0
