certificates/rado_a11_c267_N28.drat
-26 24 -28 0
24 -28 0
d -26 24 -28 0
-28 0
26 -24 0
-24 0
21 0
27 0
25 0
-17 0
-19 0
-13 0
14 0
20 0
16 0
22 0
10 0
-6 0
0
